Solver command line: ['C:\\Program Files\\IBM\\ILOG\\CPLEX_Studio2211\\cplex\\bin\\x64_win64\\cplex.exe']


Welcome to IBM(R) ILOG(R) CPLEX(R) Interactive Optimizer 22.1.1.0
  with Simplex, Mixed Integer & Barrier Optimizers
5725-A06 5725-A29 5724-Y48 5724-Y49 5724-Y54 5724-Y55 5655-Y21
Copyright IBM Corp. 1988, 2022.  All Rights Reserved.

Type 'help' for a list of available commands.
Type 'help' followed by a command name for more
information on commands.

CPLEX> Logfile 'cplex.log' closed.
Logfile 'C:\Users\wangy\Documents\GitHub\re_optimization\result_site_specific\tmplmabswbd.cplex.log' open.
CPLEX> Problem 'C:\Users\wangy\Documents\GitHub\re_optimization\result_site_specific\tmp2uqpfhje.pyomo.lp' read.
Read time = 0.22 sec. (7.28 ticks)
CPLEX> Problem name         : C:\Users\wangy\Documents\GitHub\re_optimization\result_site_specific\tmp2uqpfhje.pyomo.lp
Objective sense      : Minimize
Variables            :   52617  [Nneg: 27764,  Free: 8786,  Binary: 7,
                                 Other: 16060]
Objective nonzeros   :      14
Linear constraints   :   73052  [Less: 39437,  Greater: 3,  Equal: 33612]
  Nonzeros           :  181229
  RHS nonzeros       :    3719

Variables            : Min LB: 0.000000         Max UB: 1.000000       
Objective nonzeros   : Min   : 1.000000         Max   : 1.000000       
Linear constraints   :
  Nonzeros           : Min   : 0.001523464      Max   : 100000.0       
  RHS nonzeros       : Min   : 0.02500000       Max   : 1000.000       
CPLEX> Version identifier: 22.1.1.0 | 2022-11-27 | 9160aff4d
Tried aggregator 3 times.
MIP Presolve eliminated 48775 rows and 29796 columns.
Aggregator did 7622 substitutions.
Reduced MIP has 16655 rows, 15199 columns, and 48442 nonzeros.
Reduced MIP has 5 binaries, 0 generals, 0 SOSs, and 0 indicators.
Presolve time = 0.12 sec. (152.07 ticks)
Found incumbent of value 195835.183887 after 0.16 sec. (176.03 ticks)
Probing time = 0.00 sec. (0.92 ticks)
Tried aggregator 1 time.
Detecting symmetries...
Reduced MIP has 16655 rows, 15199 columns, and 48442 nonzeros.
Reduced MIP has 5 binaries, 0 generals, 0 SOSs, and 0 indicators.
Presolve time = 0.03 sec. (28.85 ticks)
Probing time = 0.01 sec. (0.84 ticks)
MIP emphasis: balance optimality and feasibility.
MIP search method: dynamic search.
Parallel mode: deterministic, using up to 16 threads.
Root relaxation solution time = 0.49 sec. (453.68 ticks)

        Nodes                                         Cuts/
   Node  Left     Objective  IInf  Best Integer    Best Bound    ItCnt     Gap

*     0+    0                       195835.1839    -4437.9489           102.27%
*     0+    0                         3044.6953    -4437.9489           245.76%
      0     0     2842.0782     1     3044.6953     2842.0782       51    6.65%
*     0+    0                         3044.6461     2842.0782             6.65%
      0     0        cutoff           3044.6461                    233    0.00%
Elapsed time = 0.83 sec. (796.40 ticks, tree = 0.01 MB, solutions = 3)

Root node processing (before b&c):
  Real time             =    0.83 sec. (798.87 ticks)
Parallel b&c, 16 threads:
  Real time             =    0.00 sec. (0.00 ticks)
  Sync time (average)   =    0.00 sec.
  Wait time (average)   =    0.00 sec.
                          ------------
Total (root+branch&cut) =    0.83 sec. (798.87 ticks)

Solution pool: 3 solutions saved.

MIP - Integer optimal solution:  Objective =  3.0446461333e+03
Solution time =    0.83 sec.  Iterations = 233  Nodes = 0
Deterministic time = 799.02 ticks  (963.83 ticks/sec)

CPLEX> Incumbent solution written to file 'C:\Users\wangy\Documents\GitHub\re_optimization\result_site_specific\tmp_rlxjaqx.cplex.sol'.
CPLEX> 
